17176 1 1 302 323 354 384 410 428 447 476 496
3477 0 2 322 335 365 400 436
17259 0 1 341 356 385 404 422 448 478 509 535
3465 1 2 364 395 430 460 478
3478 1 2 370 401 436 466 484
9702 1 3 378 404 435 461 478
3479 0 2 382 395 425 460 496
17177 0 1 394 409 438 457 475 501 531 562 588
3416 1 3 394 420 451 477 494
3483 0 3 414 426 452 483 514
17181 0 1 426 441 470 489 507 533 563 594 620